
(set-logic ALL) 

(declare-datatype MyList ((Nil) (Cons (head Real) (tail MyList)) )) 
(declare-fun l0 () MyList) 
(declare-fun l1 () MyList) 
(declare-fun l2 () MyList) 
(declare-fun l3 () MyList) 
(declare-fun i0 () Real) 
(declare-fun i1 () Real) 
(assert (= l3 l2) )
(assert (and (= l1 Nil) (= l1 Nil) (= l0 l0) (is-Cons Nil)) )
(assert (is-Nil Nil) )
(assert (is-Cons Nil) )
(assert (= l2 Nil) )
(assert (and (= l3 l3) (= l1 Nil)) )
(assert (is-Nil l1) )
(assert (is-Cons l0) )
(check-sat)
